(define-fun assumption.0 ((RTL.mem_state (_ BitVec 2)) (RTL.mem_valid (_ BitVec 1)) (RTL.mem_do_rdata (_ BitVec 1)) (RTL.mem_do_wdata (_ BitVec 1)) (RTL.is_lui_auipc_jal (_ BitVec 1)) (RTL.instr_jal (_ BitVec 1)) (RTL.decoder_trigger (_ BitVec 1)) (RTL.mem_wordsize (_ BitVec 2)) (RTL.latched_rd (_ BitVec 5)) (RTL.latched_branch (_ BitVec 1)) (RTL.mem_do_rinst (_ BitVec 1)) (RTL.rvfi_halt (_ BitVec 1)) (RTL.dbg_valid_insn (_ BitVec 1)) (RTL.decoded_rd (_ BitVec 5)) (RTL.cpu_state (_ BitVec 8))) Bool (and (and (and (and (and (and (and (and (and (and true (or (or (or (or (or (or (not (= ((_ extract 0 0) RTL.mem_do_rdata) ((_ extract 0 0) (_ bv1 1)))) (not (= ((_ extract 0 0) RTL.instr_jal) ((_ extract 0 0) (_ bv1 1))))) (not (= ((_ extract 0 0) RTL.mem_valid) ((_ extract 0 0) (_ bv1 1))))) (not (= ((_ extract 1 1) RTL.mem_state) ((_ extract 1 1) (_ bv3 2))))) (not (= ((_ extract 0 0) RTL.mem_state) ((_ extract 0 0) (_ bv3 2))))) (not (= ((_ extract 0 0) RTL.dbg_valid_insn) ((_ extract 0 0) (_ bv1 1))))) (not (= ((_ extract 0 0) RTL.latched_branch) ((_ extract 0 0) (_ bv0 1)))))) (or (or (or (or (or (or (not (= ((_ extract 0 0) RTL.mem_do_rdata) ((_ extract 0 0) (_ bv1 1)))) (not (= ((_ extract 0 0) RTL.instr_jal) ((_ extract 0 0) (_ bv1 1))))) (not (= ((_ extract 0 0) RTL.mem_do_rinst) ((_ extract 0 0) (_ bv0 1))))) (not (= ((_ extract 0 0) RTL.mem_valid) ((_ extract 0 0) (_ bv1 1))))) (not (= ((_ extract 1 1) RTL.mem_state) ((_ extract 1 1) (_ bv3 2))))) (not (= ((_ extract 0 0) RTL.mem_state) ((_ extract 0 0) (_ bv3 2))))) (not (= ((_ extract 0 0) RTL.dbg_valid_insn) ((_ extract 0 0) (_ bv1 1)))))) (or (or (or (or (or (not (= ((_ extract 0 0) RTL.instr_jal) ((_ extract 0 0) (_ bv1 1)))) (not (= ((_ extract 1 1) RTL.mem_wordsize) ((_ extract 1 1) (_ bv2 2))))) (not (= ((_ extract 0 0) RTL.mem_valid) ((_ extract 0 0) (_ bv1 1))))) (not (= ((_ extract 1 1) RTL.mem_state) ((_ extract 1 1) (_ bv3 2))))) (not (= ((_ extract 0 0) RTL.mem_state) ((_ extract 0 0) (_ bv3 2))))) (not (= ((_ extract 0 0) RTL.dbg_valid_insn) ((_ extract 0 0) (_ bv1 1)))))) (or (or (or (or (or (not (= ((_ extract 0 0) RTL.instr_jal) ((_ extract 0 0) (_ bv1 1)))) (not (= ((_ extract 1 1) RTL.mem_wordsize) ((_ extract 1 1) (_ bv2 2))))) (not (= ((_ extract 0 0) RTL.mem_valid) ((_ extract 0 0) (_ bv1 1))))) (not (= ((_ extract 1 1) RTL.mem_state) ((_ extract 1 1) (_ bv3 2))))) (not (= ((_ extract 0 0) RTL.mem_state) ((_ extract 0 0) (_ bv3 2))))) (not (= ((_ extract 0 0) RTL.dbg_valid_insn) ((_ extract 0 0) (_ bv1 1)))))) (or (or (not (= ((_ extract 0 0) RTL.mem_do_rinst) ((_ extract 0 0) (_ bv0 1)))) (not (= ((_ extract 0 0) RTL.cpu_state) ((_ extract 0 0) (_ bv1 8))))) (not (= ((_ extract 0 0) RTL.mem_do_wdata) ((_ extract 0 0) (_ bv1 1)))))) (or (or (or (not (= ((_ extract 0 0) RTL.instr_jal) ((_ extract 0 0) (_ bv1 1)))) (not (= ((_ extract 0 0) RTL.mem_state) ((_ extract 0 0) (_ bv3 2))))) (not (= ((_ extract 0 0) RTL.dbg_valid_insn) ((_ extract 0 0) (_ bv1 1))))) (not (= ((_ extract 0 0) RTL.is_lui_auipc_jal) ((_ extract 0 0) (_ bv0 1)))))) (or (or (or (not (= ((_ extract 0 0) RTL.mem_valid) ((_ extract 0 0) (_ bv1 1)))) (not (= ((_ extract 1 1) RTL.mem_state) ((_ extract 1 1) (_ bv3 2))))) (not (= ((_ extract 0 0) RTL.mem_state) ((_ extract 0 0) (_ bv3 2))))) (not (= ((_ extract 4 4) RTL.cpu_state) ((_ extract 4 4) (_ bv16 8)))))) (or (or (or (or (or (not (= ((_ extract 0 0) RTL.instr_jal) ((_ extract 0 0) (_ bv1 1)))) (not (= ((_ extract 0 0) RTL.mem_valid) ((_ extract 0 0) (_ bv1 1))))) (not (= ((_ extract 1 1) RTL.mem_state) ((_ extract 1 1) (_ bv3 2))))) (not (= ((_ extract 0 0) RTL.mem_state) ((_ extract 0 0) (_ bv3 2))))) (not (= ((_ extract 0 0) RTL.dbg_valid_insn) ((_ extract 0 0) (_ bv1 1))))) (not (= ((_ extract 1 1) RTL.cpu_state) ((_ extract 1 1) (_ bv2 8)))))) (or (or (or (or (or (not (= ((_ extract 0 0) RTL.instr_jal) ((_ extract 0 0) (_ bv1 1)))) (not (= ((_ extract 0 0) RTL.mem_valid) ((_ extract 0 0) (_ bv1 1))))) (not (= ((_ extract 0 0) RTL.cpu_state) ((_ extract 0 0) (_ bv1 8))))) (not (= ((_ extract 1 1) RTL.mem_state) ((_ extract 1 1) (_ bv3 2))))) (not (= ((_ extract 0 0) RTL.mem_state) ((_ extract 0 0) (_ bv3 2))))) (not (= ((_ extract 0 0) RTL.dbg_valid_insn) ((_ extract 0 0) (_ bv1 1)))))) (not (and (and (and (and (and (and (and (and (and (and (and (and (= RTL.decoder_trigger (_ bv1 1)) (= RTL.mem_state (_ bv3 2))) (= RTL.mem_valid (_ bv1 1))) (= RTL.cpu_state (_ bv64 8))) (= RTL.decoded_rd (_ bv0 5))) (= RTL.dbg_valid_insn (_ bv1 1))) (= RTL.rvfi_halt (_ bv0 1))) (= RTL.mem_do_rinst (_ bv0 1))) (= RTL.latched_branch (_ bv0 1))) (= RTL.latched_rd (_ bv0 5))) (= RTL.mem_wordsize (_ bv2 2))) (= RTL.mem_do_wdata (_ bv0 1))) (= RTL.instr_jal (_ bv1 1))))))
(define-fun assumption.1 ((RTL.instr_jal (_ BitVec 1)) (RTL.mem_do_wdata (_ BitVec 1)) (RTL.cpu_state (_ BitVec 8)) (RTL.dbg_valid_insn (_ BitVec 1)) (RTL.latched_rd (_ BitVec 5)) (RTL.mem_do_rinst (_ BitVec 1)) (RTL.mem_valid (_ BitVec 1)) (RTL.mem_state (_ BitVec 2)) (RTL.rvfi_halt (_ BitVec 1)) (RTL.do_waitirq (_ BitVec 1))) Bool (and (and (and true (not (= ((_ extract 0 0) RTL.do_waitirq) ((_ extract 0 0) (_ bv1 1))))) (or (or (not (= ((_ extract 0 0) RTL.mem_valid) ((_ extract 0 0) (_ bv1 1)))) (not (= ((_ extract 1 1) RTL.mem_state) ((_ extract 1 1) (_ bv3 2))))) (not (= ((_ extract 0 0) RTL.mem_state) ((_ extract 0 0) (_ bv3 2)))))) (not (and (and (and (and (and (and (and (and (= RTL.rvfi_halt (_ bv0 1)) (= RTL.mem_state (_ bv3 2))) (= RTL.mem_valid (_ bv1 1))) (= RTL.mem_do_rinst (_ bv0 1))) (= RTL.latched_rd (_ bv0 5))) (= RTL.dbg_valid_insn (_ bv1 1))) (= RTL.cpu_state (_ bv64 8))) (= RTL.mem_do_wdata (_ bv0 1))) (= RTL.instr_jal (_ bv1 1))))))
(define-fun assumption.2 ((RTL.instr_jal (_ BitVec 1)) (RTL.mem_state (_ BitVec 2)) (RTL.cpu_state (_ BitVec 8)) (RTL.dbg_valid_insn (_ BitVec 1)) (RTL.mem_do_rinst (_ BitVec 1)) (RTL.rvfi_halt (_ BitVec 1)) (RTL.mem_do_wdata (_ BitVec 1)) (RTL.mem_do_prefetch (_ BitVec 1)) (RTL.is_beq_bne_blt_bge_bltu_bgeu (_ BitVec 1)) (RTL.mem_valid (_ BitVec 1)) (RTL.mem_do_rdata (_ BitVec 1)) (RTL.decoder_trigger (_ BitVec 1)) (RTL.do_waitirq (_ BitVec 1))) Bool (and (and (and (and (and (and (and (and (and (and (and (and (and (and true (or (or (not (= ((_ extract 1 1) RTL.mem_state) ((_ extract 1 1) (_ bv3 2)))) (not (= ((_ extract 0 0) RTL.mem_state) ((_ extract 0 0) (_ bv3 2))))) (not (= ((_ extract 0 0) RTL.mem_valid) ((_ extract 0 0) (_ bv1 1)))))) (not (= ((_ extract 0 0) RTL.do_waitirq) ((_ extract 0 0) (_ bv1 1))))) (or (not (= ((_ extract 0 0) RTL.mem_valid) ((_ extract 0 0) (_ bv1 1)))) (not (= ((_ extract 0 0) RTL.decoder_trigger) ((_ extract 0 0) (_ bv1 1)))))) (or (or (or (or (or (or (or (or (not (= ((_ extract 0 0) RTL.instr_jal) ((_ extract 0 0) (_ bv1 1)))) (not (= ((_ extract 0 0) RTL.mem_do_rinst) ((_ extract 0 0) (_ bv0 1))))) (not (= ((_ extract 0 0) RTL.mem_do_rdata) ((_ extract 0 0) (_ bv0 1))))) (not (= ((_ extract 0 0) RTL.mem_do_wdata) ((_ extract 0 0) (_ bv0 1))))) (not (= ((_ extract 0 0) RTL.mem_do_prefetch) ((_ extract 0 0) (_ bv0 1))))) (not (= ((_ extract 0 0) RTL.mem_valid) ((_ extract 0 0) (_ bv1 1))))) (not (= ((_ extract 7 7) RTL.cpu_state) ((_ extract 7 7) (_ bv4 8))))) (not (= ((_ extract 6 6) RTL.cpu_state) ((_ extract 6 6) (_ bv4 8))))) (not (= ((_ extract 3 3) RTL.cpu_state) ((_ extract 3 3) (_ bv4 8)))))) (or (or (or (or (or (not (= ((_ extract 0 0) RTL.instr_jal) ((_ extract 0 0) (_ bv1 1)))) (not (= ((_ extract 7 7) RTL.cpu_state) ((_ extract 7 7) (_ bv64 8))))) (not (= ((_ extract 1 1) RTL.cpu_state) ((_ extract 1 1) (_ bv64 8))))) (not (= ((_ extract 0 0) RTL.mem_do_wdata) ((_ extract 0 0) (_ bv1 1))))) (not (= ((_ extract 0 0) RTL.mem_valid) ((_ extract 0 0) (_ bv1 1))))) (not (= ((_ extract 1 1) RTL.mem_state) ((_ extract 1 1) (_ bv1 2)))))) (or (or (or (or (or (or (or (or (not (= ((_ extract 0 0) RTL.instr_jal) ((_ extract 0 0) (_ bv1 1)))) (not (= ((_ extract 0 0) RTL.mem_valid) ((_ extract 0 0) (_ bv1 1))))) (not (= ((_ extract 7 7) RTL.cpu_state) ((_ extract 7 7) (_ bv32 8))))) (not (= ((_ extract 6 6) RTL.cpu_state) ((_ extract 6 6) (_ bv32 8))))) (not (= ((_ extract 5 5) RTL.cpu_state) ((_ extract 5 5) (_ bv32 8))))) (not (= ((_ extract 3 3) RTL.cpu_state) ((_ extract 3 3) (_ bv32 8))))) (not (= ((_ extract 2 2) RTL.cpu_state) ((_ extract 2 2) (_ bv32 8))))) (not (= ((_ extract 1 1) RTL.cpu_state) ((_ extract 1 1) (_ bv32 8))))) (not (= ((_ extract 0 0) RTL.cpu_state) ((_ extract 0 0) (_ bv32 8)))))) (not (= ((_ extract 4 4) RTL.cpu_state) ((_ extract 4 4) (_ bv16 8))))) (or (not (= ((_ extract 0 0) RTL.mem_do_rinst) ((_ extract 0 0) (_ bv1 1)))) (not (= ((_ extract 5 5) RTL.cpu_state) ((_ extract 5 5) (_ bv32 8)))))) (or (or (or (or (or (or (or (or (or (or (or (or (not (= ((_ extract 0 0) RTL.instr_jal) ((_ extract 0 0) (_ bv1 1)))) (not (= ((_ extract 0 0) RTL.mem_do_rinst) ((_ extract 0 0) (_ bv0 1))))) (not (= ((_ extract 0 0) RTL.mem_do_rdata) ((_ extract 0 0) (_ bv0 1))))) (not (= ((_ extract 0 0) RTL.mem_do_wdata) ((_ extract 0 0) (_ bv0 1))))) (not (= ((_ extract 0 0) RTL.mem_valid) ((_ extract 0 0) (_ bv1 1))))) (not (= ((_ extract 7 7) RTL.cpu_state) ((_ extract 7 7) (_ bv8 8))))) (not (= ((_ extract 6 6) RTL.cpu_state) ((_ extract 6 6) (_ bv8 8))))) (not (= ((_ extract 5 5) RTL.cpu_state) ((_ extract 5 5) (_ bv8 8))))) (not (= ((_ extract 3 3) RTL.cpu_state) ((_ extract 3 3) (_ bv8 8))))) (not (= ((_ extract 2 2) RTL.cpu_state) ((_ extract 2 2) (_ bv8 8))))) (not (= ((_ extract 1 1) RTL.cpu_state) ((_ extract 1 1) (_ bv8 8))))) (not (= ((_ extract 0 0) RTL.cpu_state) ((_ extract 0 0) (_ bv8 8))))) (not (= ((_ extract 0 0) RTL.is_beq_bne_blt_bge_bltu_bgeu) ((_ extract 0 0) (_ bv0 1)))))) (or (or (or (or (or (or (or (not (= ((_ extract 0 0) RTL.instr_jal) ((_ extract 0 0) (_ bv1 1)))) (not (= ((_ extract 0 0) RTL.mem_do_rinst) ((_ extract 0 0) (_ bv0 1))))) (not (= ((_ extract 0 0) RTL.mem_do_rdata) ((_ extract 0 0) (_ bv0 1))))) (not (= ((_ extract 0 0) RTL.mem_do_prefetch) ((_ extract 0 0) (_ bv0 1))))) (not (= ((_ extract 7 7) RTL.cpu_state) ((_ extract 7 7) (_ bv2 8))))) (not (= ((_ extract 6 6) RTL.cpu_state) ((_ extract 6 6) (_ bv2 8))))) (not (= ((_ extract 0 0) RTL.mem_valid) ((_ extract 0 0) (_ bv1 1))))) (not (= ((_ extract 1 1) RTL.mem_state) ((_ extract 1 1) (_ bv1 2)))))) (or (or (or (or (or (or (or (or (or (or (or (not (= ((_ extract 0 0) RTL.instr_jal) ((_ extract 0 0) (_ bv1 1)))) (not (= ((_ extract 0 0) RTL.dbg_valid_insn) ((_ extract 0 0) (_ bv1 1))))) (not (= ((_ extract 0 0) RTL.mem_do_wdata) ((_ extract 0 0) (_ bv0 1))))) (not (= ((_ extract 1 1) RTL.mem_state) ((_ extract 1 1) (_ bv3 2))))) (not (= ((_ extract 7 7) RTL.cpu_state) ((_ extract 7 7) (_ bv8 8))))) (not (= ((_ extract 6 6) RTL.cpu_state) ((_ extract 6 6) (_ bv8 8))))) (not (= ((_ extract 5 5) RTL.cpu_state) ((_ extract 5 5) (_ bv8 8))))) (not (= ((_ extract 3 3) RTL.cpu_state) ((_ extract 3 3) (_ bv8 8))))) (not (= ((_ extract 2 2) RTL.cpu_state) ((_ extract 2 2) (_ bv8 8))))) (not (= ((_ extract 1 1) RTL.cpu_state) ((_ extract 1 1) (_ bv8 8))))) (not (= ((_ extract 0 0) RTL.cpu_state) ((_ extract 0 0) (_ bv8 8))))) (not (= ((_ extract 0 0) RTL.is_beq_bne_blt_bge_bltu_bgeu) ((_ extract 0 0) (_ bv0 1)))))) (or (or (or (or (or (or (or (or (or (not (= ((_ extract 0 0) RTL.instr_jal) ((_ extract 0 0) (_ bv1 1)))) (not (= ((_ extract 0 0) RTL.dbg_valid_insn) ((_ extract 0 0) (_ bv1 1))))) (not (= ((_ extract 1 1) RTL.mem_state) ((_ extract 1 1) (_ bv3 2))))) (not (= ((_ extract 7 7) RTL.cpu_state) ((_ extract 7 7) (_ bv32 8))))) (not (= ((_ extract 6 6) RTL.cpu_state) ((_ extract 6 6) (_ bv32 8))))) (not (= ((_ extract 5 5) RTL.cpu_state) ((_ extract 5 5) (_ bv32 8))))) (not (= ((_ extract 3 3) RTL.cpu_state) ((_ extract 3 3) (_ bv32 8))))) (not (= ((_ extract 2 2) RTL.cpu_state) ((_ extract 2 2) (_ bv32 8))))) (not (= ((_ extract 1 1) RTL.cpu_state) ((_ extract 1 1) (_ bv32 8))))) (not (= ((_ extract 0 0) RTL.cpu_state) ((_ extract 0 0) (_ bv32 8)))))) (or (or (or (or (or (or (or (not (= ((_ extract 0 0) RTL.instr_jal) ((_ extract 0 0) (_ bv1 1)))) (not (= ((_ extract 0 0) RTL.dbg_valid_insn) ((_ extract 0 0) (_ bv1 1))))) (not (= ((_ extract 1 1) RTL.mem_state) ((_ extract 1 1) (_ bv3 2))))) (not (= ((_ extract 0 0) RTL.mem_state) ((_ extract 0 0) (_ bv3 2))))) (not (= ((_ extract 0 0) RTL.mem_do_prefetch) ((_ extract 0 0) (_ bv0 1))))) (not (= ((_ extract 7 7) RTL.cpu_state) ((_ extract 7 7) (_ bv4 8))))) (not (= ((_ extract 6 6) RTL.cpu_state) ((_ extract 6 6) (_ bv4 8))))) (not (= ((_ extract 1 1) RTL.cpu_state) ((_ extract 1 1) (_ bv4 8)))))) (not (and (and (and (and (and (and (= RTL.mem_do_wdata (_ bv0 1)) (= RTL.rvfi_halt (_ bv0 1))) (= RTL.mem_do_rinst (_ bv0 1))) (= RTL.dbg_valid_insn (_ bv1 1))) (= RTL.cpu_state (_ bv64 8))) (= RTL.mem_state (_ bv3 2))) (= RTL.instr_jal (_ bv1 1))))))
(define-fun assumption.3 ((RTL.cpu_state (_ BitVec 8)) (RTL.dbg_valid_insn (_ BitVec 1)) (RTL.mem_do_rinst (_ BitVec 1)) (RTL.mem_state (_ BitVec 2)) (RTL.instr_jal (_ BitVec 1)) (RTL.mem_do_rdata (_ BitVec 1)) (RTL.mem_do_wdata (_ BitVec 1)) (RTL.mem_valid (_ BitVec 1)) (RTL.mem_do_prefetch (_ BitVec 1)) (RTL.is_beq_bne_blt_bge_bltu_bgeu (_ BitVec 1)) (RTL.decoder_trigger (_ BitVec 1)) (RTL.do_waitirq (_ BitVec 1))) Bool (and (and (and (and (and (and (and (and (and (and (and (and (and (and (and (and (and true (not (= ((_ extract 0 0) RTL.do_waitirq) ((_ extract 0 0) (_ bv1 1))))) (or (or (not (= ((_ extract 1 1) RTL.mem_state) ((_ extract 1 1) (_ bv3 2)))) (not (= ((_ extract 0 0) RTL.mem_state) ((_ extract 0 0) (_ bv3 2))))) (not (= ((_ extract 0 0) RTL.mem_valid) ((_ extract 0 0) (_ bv1 1)))))) (not (= ((_ extract 4 4) RTL.cpu_state) ((_ extract 4 4) (_ bv16 8))))) (or (not (= ((_ extract 0 0) RTL.mem_do_rinst) ((_ extract 0 0) (_ bv1 1)))) (not (= ((_ extract 5 5) RTL.cpu_state) ((_ extract 5 5) (_ bv32 8)))))) (or (or (or (or (or (or (or (or (or (or (or (or (not (= ((_ extract 0 0) RTL.instr_jal) ((_ extract 0 0) (_ bv1 1)))) (not (= ((_ extract 0 0) RTL.mem_valid) ((_ extract 0 0) (_ bv1 1))))) (not (= ((_ extract 0 0) RTL.mem_do_rinst) ((_ extract 0 0) (_ bv0 1))))) (not (= ((_ extract 0 0) RTL.mem_do_rdata) ((_ extract 0 0) (_ bv0 1))))) (not (= ((_ extract 1 1) RTL.mem_state) ((_ extract 1 1) (_ bv1 2))))) (not (= ((_ extract 0 0) RTL.is_beq_bne_blt_bge_bltu_bgeu) ((_ extract 0 0) (_ bv0 1))))) (not (= ((_ extract 7 7) RTL.cpu_state) ((_ extract 7 7) (_ bv8 8))))) (not (= ((_ extract 6 6) RTL.cpu_state) ((_ extract 6 6) (_ bv8 8))))) (not (= ((_ extract 5 5) RTL.cpu_state) ((_ extract 5 5) (_ bv8 8))))) (not (= ((_ extract 3 3) RTL.cpu_state) ((_ extract 3 3) (_ bv8 8))))) (not (= ((_ extract 2 2) RTL.cpu_state) ((_ extract 2 2) (_ bv8 8))))) (not (= ((_ extract 1 1) RTL.cpu_state) ((_ extract 1 1) (_ bv8 8))))) (not (= ((_ extract 0 0) RTL.cpu_state) ((_ extract 0 0) (_ bv8 8)))))) (or (not (= ((_ extract 0 0) RTL.mem_valid) ((_ extract 0 0) (_ bv1 1)))) (not (= ((_ extract 0 0) RTL.decoder_trigger) ((_ extract 0 0) (_ bv1 1)))))) (or (or (or (or (not (= ((_ extract 6 6) RTL.cpu_state) ((_ extract 6 6) (_ bv64 8)))) (not (= ((_ extract 0 0) RTL.instr_jal) ((_ extract 0 0) (_ bv1 1))))) (not (= ((_ extract 0 0) RTL.mem_valid) ((_ extract 0 0) (_ bv1 1))))) (not (= ((_ extract 0 0) RTL.mem_do_wdata) ((_ extract 0 0) (_ bv1 1))))) (not (= ((_ extract 1 1) RTL.mem_state) ((_ extract 1 1) (_ bv1 2)))))) (or (or (or (or (or (or (or (or (not (= ((_ extract 0 0) RTL.instr_jal) ((_ extract 0 0) (_ bv1 1)))) (not (= ((_ extract 0 0) RTL.mem_valid) ((_ extract 0 0) (_ bv1 1))))) (not (= ((_ extract 7 7) RTL.cpu_state) ((_ extract 7 7) (_ bv32 8))))) (not (= ((_ extract 6 6) RTL.cpu_state) ((_ extract 6 6) (_ bv32 8))))) (not (= ((_ extract 5 5) RTL.cpu_state) ((_ extract 5 5) (_ bv32 8))))) (not (= ((_ extract 3 3) RTL.cpu_state) ((_ extract 3 3) (_ bv32 8))))) (not (= ((_ extract 2 2) RTL.cpu_state) ((_ extract 2 2) (_ bv32 8))))) (not (= ((_ extract 1 1) RTL.cpu_state) ((_ extract 1 1) (_ bv32 8))))) (not (= ((_ extract 0 0) RTL.cpu_state) ((_ extract 0 0) (_ bv32 8)))))) (or (or (or (or (not (= ((_ extract 0 0) RTL.mem_valid) ((_ extract 0 0) (_ bv1 1)))) (not (= ((_ extract 0 0) RTL.mem_do_wdata) ((_ extract 0 0) (_ bv1 1))))) (not (= ((_ extract 7 7) RTL.cpu_state) ((_ extract 7 7) (_ bv4 8))))) (not (= ((_ extract 1 1) RTL.cpu_state) ((_ extract 1 1) (_ bv4 8))))) (not (= ((_ extract 1 1) RTL.mem_state) ((_ extract 1 1) (_ bv1 2)))))) (or (or (or (or (or (or (not (= ((_ extract 0 0) RTL.instr_jal) ((_ extract 0 0) (_ bv1 1)))) (not (= ((_ extract 0 0) RTL.mem_valid) ((_ extract 0 0) (_ bv1 1))))) (not (= ((_ extract 0 0) RTL.mem_do_rinst) ((_ extract 0 0) (_ bv0 1))))) (not (= ((_ extract 0 0) RTL.mem_do_rdata) ((_ extract 0 0) (_ bv0 1))))) (not (= ((_ extract 2 2) RTL.cpu_state) ((_ extract 2 2) (_ bv4 8))))) (not (= ((_ extract 1 1) RTL.mem_state) ((_ extract 1 1) (_ bv1 2))))) (not (= ((_ extract 0 0) RTL.mem_do_prefetch) ((_ extract 0 0) (_ bv0 1)))))) (or (or (or (or (or (or (or (or (or (or (or (not (= ((_ extract 0 0) RTL.instr_jal) ((_ extract 0 0) (_ bv1 1)))) (not (= ((_ extract 1 1) RTL.mem_state) ((_ extract 1 1) (_ bv3 2))))) (not (= ((_ extract 0 0) RTL.mem_state) ((_ extract 0 0) (_ bv3 2))))) (not (= ((_ extract 0 0) RTL.dbg_valid_insn) ((_ extract 0 0) (_ bv1 1))))) (not (= ((_ extract 0 0) RTL.is_beq_bne_blt_bge_bltu_bgeu) ((_ extract 0 0) (_ bv0 1))))) (not (= ((_ extract 7 7) RTL.cpu_state) ((_ extract 7 7) (_ bv8 8))))) (not (= ((_ extract 6 6) RTL.cpu_state) ((_ extract 6 6) (_ bv8 8))))) (not (= ((_ extract 5 5) RTL.cpu_state) ((_ extract 5 5) (_ bv8 8))))) (not (= ((_ extract 3 3) RTL.cpu_state) ((_ extract 3 3) (_ bv8 8))))) (not (= ((_ extract 2 2) RTL.cpu_state) ((_ extract 2 2) (_ bv8 8))))) (not (= ((_ extract 1 1) RTL.cpu_state) ((_ extract 1 1) (_ bv8 8))))) (not (= ((_ extract 0 0) RTL.cpu_state) ((_ extract 0 0) (_ bv8 8)))))) (or (or (or (or (or (not (= ((_ extract 0 0) RTL.mem_valid) ((_ extract 0 0) (_ bv1 1)))) (not (= ((_ extract 0 0) RTL.mem_do_rinst) ((_ extract 0 0) (_ bv0 1))))) (not (= ((_ extract 0 0) RTL.mem_do_rdata) ((_ extract 0 0) (_ bv0 1))))) (not (= ((_ extract 1 1) RTL.mem_state) ((_ extract 1 1) (_ bv1 2))))) (not (= ((_ extract 0 0) RTL.mem_do_prefetch) ((_ extract 0 0) (_ bv0 1))))) (not (= ((_ extract 1 1) RTL.cpu_state) ((_ extract 1 1) (_ bv2 8)))))) (or (or (or (or (or (not (= ((_ extract 0 0) RTL.instr_jal) ((_ extract 0 0) (_ bv1 1)))) (not (= ((_ extract 1 1) RTL.mem_state) ((_ extract 1 1) (_ bv3 2))))) (not (= ((_ extract 0 0) RTL.mem_state) ((_ extract 0 0) (_ bv3 2))))) (not (= ((_ extract 2 2) RTL.cpu_state) ((_ extract 2 2) (_ bv4 8))))) (not (= ((_ extract 0 0) RTL.dbg_valid_insn) ((_ extract 0 0) (_ bv1 1))))) (not (= ((_ extract 0 0) RTL.mem_do_rdata) ((_ extract 0 0) (_ bv1 1)))))) (or (or (or (or (or (not (= ((_ extract 0 0) RTL.instr_jal) ((_ extract 0 0) (_ bv1 1)))) (not (= ((_ extract 1 1) RTL.mem_state) ((_ extract 1 1) (_ bv3 2))))) (not (= ((_ extract 0 0) RTL.mem_state) ((_ extract 0 0) (_ bv3 2))))) (not (= ((_ extract 2 2) RTL.cpu_state) ((_ extract 2 2) (_ bv4 8))))) (not (= ((_ extract 0 0) RTL.dbg_valid_insn) ((_ extract 0 0) (_ bv1 1))))) (not (= ((_ extract 0 0) RTL.mem_do_prefetch) ((_ extract 0 0) (_ bv0 1)))))) (or (or (or (or (or (or (or (or (or (not (= ((_ extract 0 0) RTL.instr_jal) ((_ extract 0 0) (_ bv1 1)))) (not (= ((_ extract 0 0) RTL.mem_state) ((_ extract 0 0) (_ bv3 2))))) (not (= ((_ extract 0 0) RTL.dbg_valid_insn) ((_ extract 0 0) (_ bv1 1))))) (not (= ((_ extract 7 7) RTL.cpu_state) ((_ extract 7 7) (_ bv32 8))))) (not (= ((_ extract 6 6) RTL.cpu_state) ((_ extract 6 6) (_ bv32 8))))) (not (= ((_ extract 5 5) RTL.cpu_state) ((_ extract 5 5) (_ bv32 8))))) (not (= ((_ extract 3 3) RTL.cpu_state) ((_ extract 3 3) (_ bv32 8))))) (not (= ((_ extract 2 2) RTL.cpu_state) ((_ extract 2 2) (_ bv32 8))))) (not (= ((_ extract 1 1) RTL.cpu_state) ((_ extract 1 1) (_ bv32 8))))) (not (= ((_ extract 0 0) RTL.cpu_state) ((_ extract 0 0) (_ bv32 8)))))) (or (or (or (or (or (not (= ((_ extract 0 0) RTL.instr_jal) ((_ extract 0 0) (_ bv1 1)))) (not (= ((_ extract 0 0) RTL.mem_valid) ((_ extract 0 0) (_ bv1 1))))) (not (= ((_ extract 0 0) RTL.mem_do_wdata) ((_ extract 0 0) (_ bv1 1))))) (not (= ((_ extract 0 0) RTL.mem_do_rinst) ((_ extract 0 0) (_ bv0 1))))) (not (= ((_ extract 0 0) RTL.mem_do_rdata) ((_ extract 0 0) (_ bv0 1))))) (not (= ((_ extract 1 1) RTL.mem_state) ((_ extract 1 1) (_ bv1 2)))))) (not (and (and (and (and (= RTL.instr_jal (_ bv1 1)) (= RTL.mem_state (_ bv3 2))) (= RTL.mem_do_rinst (_ bv0 1))) (= RTL.dbg_valid_insn (_ bv1 1))) (= RTL.cpu_state (_ bv64 8))))))
